# Solution for model JobShopModel
# Objective value = 74452
y[0,0,1] 1
y[0,1,0] 1
y[0,2,2] 1
y[0,3,3] 1
y[0,4,4] 1
y[1,0,3] 1
y[1,1,1] 1
y[1,2,2] 1
y[1,3,0] 1
y[1,4,4] 1
y[2,0,0] 1
y[2,1,2] 1
y[2,2,3] 1
y[2,3,1] 1
y[2,4,4] 1
y[3,0,0] 1
y[3,1,3] 1
y[3,2,2] 1
y[3,3,4] 1
y[4,0,0] 1
y[4,1,3] 1
y[4,2,0] 1
y[4,3,2] 1
y[4,4,4] 1
x[0,0,0,0] 0
x[0,0,0,1] 0
x[0,0,0,2] 0
x[0,0,0,3] 0
x[0,0,0,4] 0
x[0,0,1,0] 0
x[0,0,1,1] 1
x[0,0,1,2] 0
x[0,0,1,3] 0
x[0,0,1,4] 0
x[0,0,2,0] 0
x[0,0,2,1] 0
x[0,0,2,2] 0
x[0,0,2,3] 1
x[0,0,2,4] 0
x[0,0,3,0] 0
x[0,0,3,1] 0
x[0,0,3,2] 0
x[0,0,3,3] 0
x[0,0,4,0] 0
x[0,0,4,1] 0
x[0,0,4,2] 0
x[0,0,4,3] 0
x[0,0,4,4] 0
x[0,1,0,0] 0
x[0,1,0,1] 0
x[0,1,0,2] 0
x[0,1,0,3] 0
x[0,1,0,4] 0
x[0,1,1,0] 0
x[0,1,1,1] 0
x[0,1,1,2] 0
x[0,1,1,3] 1
x[0,1,1,4] 0
x[0,1,2,0] 0
x[0,1,2,1] 0
x[0,1,2,2] 0
x[0,1,2,3] 0
x[0,1,2,4] 0
x[0,1,3,0] 0
x[0,1,3,1] 0
x[0,1,3,2] 0
x[0,1,3,3] 0
x[0,1,4,0] 1
x[0,1,4,1] 0
x[0,1,4,2] 1
x[0,1,4,3] 0
x[0,1,4,4] 0
x[0,2,0,0] 0
x[0,2,0,1] 0
x[0,2,0,2] 0
x[0,2,0,3] 0
x[0,2,0,4] 0
x[0,2,1,0] 0
x[0,2,1,1] 0
x[0,2,1,2] 1
x[0,2,1,3] 0
x[0,2,1,4] 0
x[0,2,2,0] 0
x[0,2,2,1] 0
x[0,2,2,2] 0
x[0,2,2,3] 0
x[0,2,2,4] 0
x[0,2,3,0] 0
x[0,2,3,1] 0
x[0,2,3,2] 0
x[0,2,3,3] 0
x[0,2,4,0] 0
x[0,2,4,1] 0
x[0,2,4,2] 0
x[0,2,4,3] 1
x[0,2,4,4] 0
x[0,3,0,0] 0
x[0,3,0,1] 0
x[0,3,0,2] 0
x[0,3,0,3] 0
x[0,3,0,4] 0
x[0,3,1,0] 0
x[0,3,1,1] 0
x[0,3,1,2] 0
x[0,3,1,3] 0
x[0,3,1,4] 0
x[0,3,2,0] 0
x[0,3,2,1] 0
x[0,3,2,2] 0
x[0,3,2,3] 0
x[0,3,2,4] 0
x[0,3,3,0] 0
x[0,3,3,1] 0
x[0,3,3,2] 0
x[0,3,3,3] 0
x[0,3,4,0] 0
x[0,3,4,1] 0
x[0,3,4,2] 0
x[0,3,4,3] 0
x[0,3,4,4] 0
x[0,4,0,0] 0
x[0,4,0,1] 0
x[0,4,0,2] 0
x[0,4,0,3] 0
x[0,4,0,4] 0
x[0,4,1,0] 0
x[0,4,1,1] 0
x[0,4,1,2] 0
x[0,4,1,3] 0
x[0,4,1,4] 1
x[0,4,2,0] 0
x[0,4,2,1] 0
x[0,4,2,2] 0
x[0,4,2,3] 0
x[0,4,2,4] 0
x[0,4,3,0] 0
x[0,4,3,1] 0
x[0,4,3,2] 0
x[0,4,3,3] 0
x[0,4,4,0] 0
x[0,4,4,1] 0
x[0,4,4,2] 0
x[0,4,4,3] 0
x[0,4,4,4] 0
x[1,0,0,0] 0
x[1,0,0,1] 0
x[1,0,0,2] 0
x[1,0,0,3] 0
x[1,0,0,4] 0
x[1,0,1,0] 0
x[1,0,1,1] 0
x[1,0,1,2] 0
x[1,0,1,3] 0
x[1,0,1,4] 0
x[1,0,2,0] 0
x[1,0,2,1] 0
x[1,0,2,2] 0
x[1,0,2,3] 0
x[1,0,2,4] 0
x[1,0,3,0] 0
x[1,0,3,1] 0
x[1,0,3,2] 0
x[1,0,3,3] 0
x[1,0,4,0] 0
x[1,0,4,1] 0
x[1,0,4,2] 0
x[1,0,4,3] 0
x[1,0,4,4] 0
x[1,1,0,0] 0
x[1,1,0,1] 0
x[1,1,0,2] 0
x[1,1,0,3] 0
x[1,1,0,4] 0
x[1,1,1,0] 0
x[1,1,1,1] 0
x[1,1,1,2] 0
x[1,1,1,3] 0
x[1,1,1,4] 0
x[1,1,2,0] 0
x[1,1,2,1] 0
x[1,1,2,2] 0
x[1,1,2,3] 0
x[1,1,2,4] 0
x[1,1,3,0] 0
x[1,1,3,1] 0
x[1,1,3,2] 0
x[1,1,3,3] 0
x[1,1,4,0] 0
x[1,1,4,1] 0
x[1,1,4,2] 0
x[1,1,4,3] 0
x[1,1,4,4] 0
x[1,2,0,0] 0
x[1,2,0,1] 0
x[1,2,0,2] 0
x[1,2,0,3] 0
x[1,2,0,4] 0
x[1,2,1,0] 0
x[1,2,1,1] 0
x[1,2,1,2] 0
x[1,2,1,3] 0
x[1,2,1,4] 0
x[1,2,2,0] 0
x[1,2,2,1] 0
x[1,2,2,2] 0
x[1,2,2,3] 0
x[1,2,2,4] 0
x[1,2,3,0] 0
x[1,2,3,1] 0
x[1,2,3,2] 0
x[1,2,3,3] 0
x[1,2,4,0] 0
x[1,2,4,1] 0
x[1,2,4,2] 0
x[1,2,4,3] 0
x[1,2,4,4] 0
x[1,3,0,0] 0
x[1,3,0,1] 0
x[1,3,0,2] 0
x[1,3,0,3] 0
x[1,3,0,4] 0
x[1,3,1,0] 0
x[1,3,1,1] 0
x[1,3,1,2] 0
x[1,3,1,3] 0
x[1,3,1,4] 0
x[1,3,2,0] 0
x[1,3,2,1] 0
x[1,3,2,2] 0
x[1,3,2,3] 0
x[1,3,2,4] 0
x[1,3,3,0] 0
x[1,3,3,1] 0
x[1,3,3,2] 0
x[1,3,3,3] 0
x[1,3,4,0] 0
x[1,3,4,1] 0
x[1,3,4,2] 0
x[1,3,4,3] 0
x[1,3,4,4] 0
x[1,4,0,0] 0
x[1,4,0,1] 0
x[1,4,0,2] 0
x[1,4,0,3] 0
x[1,4,0,4] 0
x[1,4,1,0] 0
x[1,4,1,1] 0
x[1,4,1,2] 0
x[1,4,1,3] 0
x[1,4,1,4] 0
x[1,4,2,0] 0
x[1,4,2,1] 0
x[1,4,2,2] 0
x[1,4,2,3] 0
x[1,4,2,4] 0
x[1,4,3,0] 0
x[1,4,3,1] 0
x[1,4,3,2] 0
x[1,4,3,3] 0
x[1,4,4,0] 0
x[1,4,4,1] 0
x[1,4,4,2] 0
x[1,4,4,3] 0
x[1,4,4,4] 0
x[2,0,0,0] 0
x[2,0,0,1] 0
x[2,0,0,2] 0
x[2,0,0,3] 0
x[2,0,0,4] 0
x[2,0,1,0] 0
x[2,0,1,1] 0
x[2,0,1,2] 0
x[2,0,1,3] 0
x[2,0,1,4] 0
x[2,0,2,0] 0
x[2,0,2,1] 0
x[2,0,2,2] 0
x[2,0,2,3] 0
x[2,0,2,4] 0
x[2,0,3,0] 0
x[2,0,3,1] 0
x[2,0,3,2] 0
x[2,0,3,3] 0
x[2,0,4,0] 1
x[2,0,4,1] 0
x[2,0,4,2] 1
x[2,0,4,3] 0
x[2,0,4,4] 0
x[2,1,0,0] 0
x[2,1,0,1] 0
x[2,1,0,2] 0
x[2,1,0,3] 0
x[2,1,0,4] 0
x[2,1,1,0] 0
x[2,1,1,1] 0
x[2,1,1,2] 0
x[2,1,1,3] 0
x[2,1,1,4] 0
x[2,1,2,0] 0
x[2,1,2,1] 0
x[2,1,2,2] 0
x[2,1,2,3] 0
x[2,1,2,4] 0
x[2,1,3,0] 0
x[2,1,3,1] 0
x[2,1,3,2] 1
x[2,1,3,3] 0
x[2,1,4,0] 0
x[2,1,4,1] 0
x[2,1,4,2] 0
x[2,1,4,3] 1
x[2,1,4,4] 0
x[2,2,0,0] 0
x[2,2,0,1] 0
x[2,2,0,2] 0
x[2,2,0,3] 0
x[2,2,0,4] 0
x[2,2,1,0] 0
x[2,2,1,1] 0
x[2,2,1,2] 0
x[2,2,1,3] 0
x[2,2,1,4] 0
x[2,2,2,0] 0
x[2,2,2,1] 0
x[2,2,2,2] 0
x[2,2,2,3] 0
x[2,2,2,4] 0
x[2,2,3,0] 0
x[2,2,3,1] 0
x[2,2,3,2] 0
x[2,2,3,3] 0
x[2,2,4,0] 0
x[2,2,4,1] 1
x[2,2,4,2] 0
x[2,2,4,3] 0
x[2,2,4,4] 0
x[2,3,0,0] 0
x[2,3,0,1] 0
x[2,3,0,2] 0
x[2,3,0,3] 0
x[2,3,0,4] 0
x[2,3,1,0] 0
x[2,3,1,1] 0
x[2,3,1,2] 0
x[2,3,1,3] 0
x[2,3,1,4] 0
x[2,3,2,0] 0
x[2,3,2,1] 0
x[2,3,2,2] 0
x[2,3,2,3] 0
x[2,3,2,4] 0
x[2,3,3,0] 0
x[2,3,3,1] 0
x[2,3,3,2] 0
x[2,3,3,3] 0
x[2,3,4,0] 0
x[2,3,4,1] 0
x[2,3,4,2] 0
x[2,3,4,3] 0
x[2,3,4,4] 0
x[2,4,0,0] 0
x[2,4,0,1] 0
x[2,4,0,2] 0
x[2,4,0,3] 0
x[2,4,0,4] 0
x[2,4,1,0] 0
x[2,4,1,1] 0
x[2,4,1,2] 0
x[2,4,1,3] 0
x[2,4,1,4] 0
x[2,4,2,0] 0
x[2,4,2,1] 0
x[2,4,2,2] 0
x[2,4,2,3] 0
x[2,4,2,4] 0
x[2,4,3,0] 0
x[2,4,3,1] 0
x[2,4,3,2] 0
x[2,4,3,3] 0
x[2,4,4,0] 0
x[2,4,4,1] 0
x[2,4,4,2] 0
x[2,4,4,3] 0
x[2,4,4,4] 1
x[3,0,0,0] 0
x[3,0,0,1] 0
x[3,0,0,2] 0
x[3,0,0,3] 0
x[3,0,0,4] 0
x[3,0,1,0] 0
x[3,0,1,1] 0
x[3,0,1,2] 0
x[3,0,1,3] 0
x[3,0,1,4] 0
x[3,0,2,0] 0
x[3,0,2,1] 0
x[3,0,2,2] 0
x[3,0,2,3] 0
x[3,0,2,4] 0
x[3,0,3,0] 0
x[3,0,3,1] 0
x[3,0,3,2] 0
x[3,0,3,3] 0
x[3,0,4,0] 1
x[3,0,4,1] 0
x[3,0,4,2] 1
x[3,0,4,3] 0
x[3,0,4,4] 0
x[3,1,0,0] 0
x[3,1,0,1] 0
x[3,1,0,2] 0
x[3,1,0,3] 0
x[3,1,0,4] 0
x[3,1,1,0] 0
x[3,1,1,1] 0
x[3,1,1,2] 0
x[3,1,1,3] 0
x[3,1,1,4] 0
x[3,1,2,0] 0
x[3,1,2,1] 0
x[3,1,2,2] 0
x[3,1,2,3] 0
x[3,1,2,4] 0
x[3,1,3,0] 0
x[3,1,3,1] 0
x[3,1,3,2] 0
x[3,1,3,3] 0
x[3,1,4,0] 0
x[3,1,4,1] 1
x[3,1,4,2] 0
x[3,1,4,3] 0
x[3,1,4,4] 0
x[3,2,0,0] 0
x[3,2,0,1] 0
x[3,2,0,2] 0
x[3,2,0,3] 0
x[3,2,0,4] 0
x[3,2,1,0] 0
x[3,2,1,1] 0
x[3,2,1,2] 0
x[3,2,1,3] 0
x[3,2,1,4] 0
x[3,2,2,0] 0
x[3,2,2,1] 0
x[3,2,2,2] 0
x[3,2,2,3] 0
x[3,2,2,4] 0
x[3,2,3,0] 0
x[3,2,3,1] 0
x[3,2,3,2] 0
x[3,2,3,3] 0
x[3,2,4,0] 0
x[3,2,4,1] 0
x[3,2,4,2] 0
x[3,2,4,3] 1
x[3,2,4,4] 0
x[3,3,0,0] 0
x[3,3,0,1] 0
x[3,3,0,2] 0
x[3,3,0,3] 0
x[3,3,0,4] 0
x[3,3,1,0] 0
x[3,3,1,1] 0
x[3,3,1,2] 0
x[3,3,1,3] 0
x[3,3,1,4] 0
x[3,3,2,0] 0
x[3,3,2,1] 0
x[3,3,2,2] 0
x[3,3,2,3] 0
x[3,3,2,4] 0
x[3,3,3,0] 0
x[3,3,3,1] 0
x[3,3,3,2] 0
x[3,3,3,3] 0
x[3,3,4,0] 0
x[3,3,4,1] 0
x[3,3,4,2] 0
x[3,3,4,3] 0
x[3,3,4,4] 1
x[4,0,0,0] 0
x[4,0,0,1] 0
x[4,0,0,2] 0
x[4,0,0,3] 0
x[4,0,0,4] 0
x[4,0,1,0] 0
x[4,0,1,1] 0
x[4,0,1,2] 0
x[4,0,1,3] 0
x[4,0,1,4] 0
x[4,0,2,0] 0
x[4,0,2,1] 0
x[4,0,2,2] 0
x[4,0,2,3] 0
x[4,0,2,4] 0
x[4,0,3,0] 0
x[4,0,3,1] 0
x[4,0,3,2] 0
x[4,0,3,3] 0
x[4,0,4,0] 0
x[4,0,4,1] 0
x[4,0,4,2] 1
x[4,0,4,3] 0
x[4,0,4,4] 0
x[4,1,0,0] 0
x[4,1,0,1] 0
x[4,1,0,2] 0
x[4,1,0,3] 0
x[4,1,0,4] 0
x[4,1,1,0] 0
x[4,1,1,1] 0
x[4,1,1,2] 0
x[4,1,1,3] 0
x[4,1,1,4] 0
x[4,1,2,0] 0
x[4,1,2,1] 0
x[4,1,2,2] 0
x[4,1,2,3] 0
x[4,1,2,4] 0
x[4,1,3,0] 0
x[4,1,3,1] 0
x[4,1,3,2] 0
x[4,1,3,3] 0
x[4,1,4,0] 0
x[4,1,4,1] 0
x[4,1,4,2] 0
x[4,1,4,3] 0
x[4,1,4,4] 0
x[4,2,0,0] 0
x[4,2,0,1] 0
x[4,2,0,2] 0
x[4,2,0,3] 0
x[4,2,0,4] 0
x[4,2,1,0] 0
x[4,2,1,1] 0
x[4,2,1,2] 0
x[4,2,1,3] 0
x[4,2,1,4] 0
x[4,2,2,0] 0
x[4,2,2,1] 0
x[4,2,2,2] 0
x[4,2,2,3] 0
x[4,2,2,4] 0
x[4,2,3,0] 0
x[4,2,3,1] 0
x[4,2,3,2] 0
x[4,2,3,3] 0
x[4,2,4,0] 0
x[4,2,4,1] 0
x[4,2,4,2] 0
x[4,2,4,3] 0
x[4,2,4,4] 0
x[4,3,0,0] 0
x[4,3,0,1] 0
x[4,3,0,2] 0
x[4,3,0,3] 0
x[4,3,0,4] 0
x[4,3,1,0] 0
x[4,3,1,1] 0
x[4,3,1,2] 0
x[4,3,1,3] 0
x[4,3,1,4] 0
x[4,3,2,0] 0
x[4,3,2,1] 0
x[4,3,2,2] 0
x[4,3,2,3] 0
x[4,3,2,4] 0
x[4,3,3,0] 0
x[4,3,3,1] 0
x[4,3,3,2] 0
x[4,3,3,3] 0
x[4,3,4,0] 0
x[4,3,4,1] 0
x[4,3,4,2] 0
x[4,3,4,3] 0
x[4,3,4,4] 0
x[4,4,0,0] 0
x[4,4,0,1] 0
x[4,4,0,2] 0
x[4,4,0,3] 0
x[4,4,0,4] 0
x[4,4,1,0] 0
x[4,4,1,1] 0
x[4,4,1,2] 0
x[4,4,1,3] 0
x[4,4,1,4] 0
x[4,4,2,0] 0
x[4,4,2,1] 0
x[4,4,2,2] 0
x[4,4,2,3] 0
x[4,4,2,4] 0
x[4,4,3,0] 0
x[4,4,3,1] 0
x[4,4,3,2] 0
x[4,4,3,3] 0
x[4,4,4,0] 0
x[4,4,4,1] 0
x[4,4,4,2] 0
x[4,4,4,3] 0
x[4,4,4,4] 0
s[0,0,1] 13679
s[0,1,0] 12239
s[0,2,2] 7978
s[0,3,3] 3499
s[0,4,4] 2059
s[1,0,3] 6439
s[1,1,1] 4800
s[1,2,2] 3360
s[1,3,0] 1920
s[1,4,4] 480
s[2,0,0] 16678
s[2,1,2] 15238
s[2,2,3] 10918
s[2,3,1] 7978
s[2,4,4] 6538
s[3,0,0] 18277
s[3,1,3] 15397
s[3,2,2] 11037
s[3,3,4] 9597
s[4,0,0] 10739
s[4,1,3] 9299
s[4,2,0] 7859
s[4,3,2] 6419
s[4,4,4] 3539
Z_FO 74452
